JulietBench/Juliet_Based_Patch_Bench/FFmpeg/CWE-189-Numeric-Errors/CVE_2013_0876_5260edee7e5bd975837696c8c8c1a80eb2fbd7c1/Resultold_codec37_Snippet_patch2NEQ.smt2
; benchmark generated from python API
(set-info :status unknown)
(declare-fun R () (_ BitVec 32))
(declare-fun r9 () (_ BitVec 64))
(declare-fun rsi () (_ BitVec 64))
(declare-fun r8 () (_ BitVec 64))
(declare-fun rdx () (_ BitVec 64))
(declare-fun rcx () (_ BitVec 64))
(assert
 (let (($x134 (and (distinct (_ bv5 32) R) true)))
 (let ((?x16 ((_ extract 31 0) r9)))
 (let (($x114 (= R ?x16)))
 (let ((?x8 ((_ extract 31 0) rsi)))
 (let ((?x14 ((_ extract 31 0) r8)))
 (let ((?x25 (bvmul ?x14 ?x8)))
 (let ((?x10 ((_ extract 31 0) rdx)))
 (let ((?x12 ((_ extract 31 0) rcx)))
 (let ((?x17 (bvmul ?x14 ?x12)))
 (let ((?x18 (bvsub ?x17 ?x10)))
 (let ((?x28 (bvsub ?x18 ?x25)))
 (let (($x35 (bvule ?x16 ?x28)))
 (let (($x105 (and $x35 $x114)))
 (let ((?x30 (bvmul (_ bv4294967295 32) ?x25)))
 (let ((?x21 (bvmul (_ bv4294967295 32) ?x10)))
 (let ((?x22 (bvadd ?x17 ?x21)))
 (let ((?x124 (bvadd ?x22 ?x30)))
 (let (($x26 (= R ?x124)))
 (let (($x89 (bvugt ?x16 ?x28)))
 (let (($x19 (and $x89 $x26)))
 (let (($x129 (or $x19 $x105)))
 (let (($x133 (not $x129)))
 (let (($x135 (and $x133 $x134)))
 (let (($x131 (= (_ bv5 32) R)))
 (let (($x132 (and $x129 $x131)))
 (let (($x136 (or $x132 $x135)))
 (not $x136))))))))))))))))))))))))))))
(check-sat)
